c FILE: i080-214

c SOURCE: From steinlib

c DESCRIPTION: Steinlib instance with 80 nodes and 350 edges.

p edge 80 350
e 1 8
e 1 11
e 1 12
e 1 21
e 1 23
e 1 36
e 1 43
e 1 55
e 1 56
e 1 57
e 1 59
e 2 7
e 2 10
e 2 38
e 2 39
e 2 52
e 2 55
e 2 60
e 2 72
e 2 76
e 3 13
e 3 16
e 3 20
e 3 26
e 3 41
e 3 47
e 3 71
e 3 76
e 4 13
e 4 59
e 4 68
e 5 7
e 5 18
e 5 20
e 5 54
e 5 59
e 5 68
e 5 72
e 6 10
e 6 34
e 6 51
e 6 60
e 6 69
e 6 73
e 6 77
e 7 12
e 7 14
e 7 21
e 7 24
e 7 33
e 7 44
e 7 54
e 7 57
e 7 73
e 7 79
e 8 16
e 8 17
e 8 19
e 8 20
e 8 28
e 8 37
e 8 47
e 8 58
e 8 62
e 8 64
e 8 66
e 8 69
e 8 75
e 9 30
e 9 32
e 9 35
e 9 36
e 9 50
e 9 52
e 9 66
e 9 67
e 10 15
e 10 17
e 10 28
e 10 51
e 10 72
e 10 73
e 10 75
e 11 27
e 11 33
e 11 34
e 11 45
e 11 52
e 11 53
e 11 55
e 11 64
e 11 66
e 11 71
e 12 14
e 12 15
e 12 16
e 12 21
e 12 24
e 12 51
e 12 53
e 12 55
e 12 63
e 12 69
e 12 77
e 13 33
e 13 40
e 13 46
e 13 49
e 13 64
e 13 65
e 13 71
e 13 78
e 14 18
e 14 19
e 14 21
e 14 31
e 14 33
e 14 38
e 14 49
e 14 55
e 14 56
e 14 59
e 15 17
e 15 26
e 15 27
e 15 50
e 15 59
e 16 19
e 16 25
e 16 54
e 16 65
e 16 69
e 16 72
e 17 30
e 17 33
e 17 37
e 17 48
e 18 47
e 18 48
e 18 53
e 18 54
e 18 58
e 18 75
e 18 76
e 19 31
e 19 32
e 19 37
e 19 46
e 19 52
e 19 55
e 19 59
e 19 63
e 19 64
e 20 24
e 20 30
e 20 52
e 20 60
e 20 68
e 20 80
e 21 29
e 21 31
e 21 35
e 21 36
e 21 44
e 21 49
e 21 56
e 22 25
e 22 32
e 22 40
e 22 41
e 22 47
e 22 49
e 22 57
e 22 59
e 22 75
e 23 25
e 23 40
e 23 51
e 23 52
e 23 74
e 24 32
e 24 36
e 24 39
e 24 61
e 24 72
e 24 77
e 24 80
e 25 28
e 25 36
e 25 49
e 25 58
e 25 72
e 25 74
e 26 31
e 26 64
e 26 65
e 27 31
e 27 43
e 27 59
e 28 29
e 28 51
e 29 35
e 29 40
e 29 45
e 29 54
e 29 66
e 29 68
e 29 69
e 29 76
e 30 39
e 30 42
e 30 52
e 30 54
e 30 67
e 31 32
e 31 35
e 31 40
e 31 41
e 31 52
e 31 68
e 31 70
e 32 44
e 32 50
e 32 54
e 32 57
e 33 36
e 33 41
e 33 46
e 33 48
e 33 51
e 33 56
e 33 75
e 33 76
e 34 35
e 34 37
e 34 43
e 34 55
e 34 56
e 34 67
e 34 70
e 34 76
e 35 43
e 35 44
e 35 49
e 35 53
e 36 40
e 36 45
e 36 53
e 36 60
e 36 69
e 36 72
e 36 79
e 37 49
e 37 58
e 37 68
e 38 39
e 38 47
e 38 48
e 38 50
e 38 51
e 38 56
e 38 67
e 38 68
e 38 72
e 38 77
e 38 78
e 39 53
e 39 65
e 40 48
e 40 50
e 40 51
e 40 63
e 40 80
e 41 50
e 41 51
e 41 66
e 42 48
e 42 51
e 42 73
e 43 44
e 43 49
e 43 56
e 43 63
e 43 65
e 43 68
e 43 71
e 43 73
e 43 78
e 44 56
e 44 59
e 44 80
e 45 57
e 45 58
e 45 72
e 46 49
e 46 54
e 46 68
e 46 69
e 46 70
e 47 56
e 47 73
e 47 74
e 47 75
e 48 57
e 48 61
e 48 67
e 48 69
e 49 61
e 49 75
e 49 78
e 50 78
e 51 53
e 51 65
e 52 60
e 52 62
e 52 68
e 52 72
e 53 70
e 54 58
e 55 61
e 55 72
e 55 79
e 56 58
e 56 68
e 56 70
e 57 62
e 57 63
e 57 75
e 59 61
e 59 73
e 60 62
e 61 62
e 61 72
e 61 79
e 62 65
e 62 66
e 62 71
e 62 77
e 63 65
e 63 72
e 63 80
e 65 67
e 65 73
e 66 70
e 66 78
e 67 70
e 67 78
e 69 78
e 72 78
e 76 79
